(set-option :produce-models true)
(set-logic QF_UF)
(declare-fun p52() Bool)
(declare-fun p60() Bool)
(declare-fun p34() Bool)
(declare-fun p19() Bool)
(declare-fun p4() Bool)
(declare-fun p85() Bool)
(declare-fun p77() Bool)
(declare-fun p17() Bool)
(declare-fun p21() Bool)
(declare-fun p16() Bool)
(declare-fun p75() Bool)
(declare-fun p7() Bool)
(declare-fun p2() Bool)
(declare-fun p88() Bool)
(declare-fun p70() Bool)
(declare-fun p26() Bool)
(declare-fun p44() Bool)
(declare-fun p40() Bool)
(declare-fun p3() Bool)
(declare-fun p53() Bool)
(declare-fun p84() Bool)
(declare-fun p79() Bool)
(declare-fun p80() Bool)
(declare-fun p33() Bool)
(declare-fun p54() Bool)
(declare-fun p63() Bool)
(declare-fun p76() Bool)
(declare-fun p46() Bool)
(declare-fun p8() Bool)
(declare-fun p27() Bool)
(declare-fun p62() Bool)
(declare-fun p35() Bool)
(declare-fun p68() Bool)
(declare-fun p32() Bool)
(declare-fun p81() Bool)
(declare-fun p29() Bool)
(declare-fun p13() Bool)
(declare-fun p23() Bool)
(declare-fun p69() Bool)
(declare-fun p50() Bool)
(declare-fun p87() Bool)
(declare-fun p82() Bool)
(declare-fun p51() Bool)
(declare-fun p48() Bool)
(declare-fun p6() Bool)
(declare-fun p49() Bool)
(declare-fun p47() Bool)
(declare-fun p58() Bool)
(declare-fun p59() Bool)
(declare-fun p28() Bool)
(declare-fun p36() Bool)
(declare-fun p64() Bool)
(declare-fun p31() Bool)
(declare-fun p14() Bool)
(declare-fun p39() Bool)
(declare-fun p30() Bool)
(declare-fun p71() Bool)
(declare-fun p57() Bool)
(declare-fun p65() Bool)
(declare-fun p73() Bool)
(declare-fun p0() Bool)
(declare-fun p56() Bool)
(declare-fun p1() Bool)
(declare-fun p72() Bool)
(declare-fun p42() Bool)
(declare-fun p9() Bool)
(declare-fun p5() Bool)
(declare-fun p41() Bool)
(declare-fun p43() Bool)
(declare-fun p10() Bool)
(declare-fun p55() Bool)
(declare-fun p89() Bool)
(declare-fun p61() Bool)
(declare-fun p20() Bool)
(declare-fun p67() Bool)
(declare-fun p12() Bool)
(declare-fun p15() Bool)
(declare-fun p86() Bool)
(declare-fun p24() Bool)
(declare-fun p22() Bool)
(declare-fun p25() Bool)
(declare-fun p66() Bool)
(declare-fun p38() Bool)
(declare-fun p18() Bool)
(declare-fun p78() Bool)
(declare-fun p45() Bool)
(declare-fun p11() Bool)
(declare-fun p37() Bool)
(declare-fun p83() Bool)
(declare-fun p74() Bool)
(assert
(and (or p52 p60 (not p34)) (or p19 p4 p85) (or (not p77) p77 p17) (or (not p21) p16 (not p75)) (or p7 (not p2) (not p88)) (or (not p70) p26 (not p44)) (or p40 p3 (not p53)) (or p88 (not p84) p79) (or (not p21) p85 p80) (or p17 p33 (not p54)) (or p40 (not p63) (not p76)) (or p46 (not p8) (not p27)) (or p62 p35 (not p27)) (or (not p68) p32 p81) (or p19 (not p44) p29) (or (not p13) p23 (not p80)) (or (not p69) p50 p50) (or (not p81) p87 p16) (or (not p60) p21 (not p19)) (or p82 (not p40) (not p7)) (or p51 (not p48) (not p7)) (or p23 (not p85) (not p6)) (or (not p35) p60 p50) (or p26 (not p17) (not p49)) (or (not p47) p58 p59) (or (not p76) (not p87) p53) (or (not p28) p36 (not p82)) (or p64 p31 (not p14)) (or p39 p27 p59) (or p30 p71 (not p4)) (or p21 p49 p57) (or (not p65) (not p27) (not p73)) (or (not p48) (not p59) p30) (or p57 p34 p0) (or p58 (not p82) p56) (or p80 (not p28) (not p51)) (or p57 (not p76) (not p39)) (or p32 p19 p68) (or p31 p64 p53) (or (not p50) (not p1) p35) (or p70 p72 p42) (or p39 (not p19) p26) (or (not p3) p28 p9) (or p52 (not p77) (not p5)) (or p41 p6 p16) (or (not p54) p43 (not p87)) (or (not p71) p31 (not p47)) (or p10 p50 (not p55)) (or p89 (not p53) (not p73)) (or (not p61) p17 (not p62)) (or p30 (not p70) p20) (or p50 (not p68) p64) (or (not p67) p30 (not p28)) (or (not p80) (not p31) p1) (or p12 (not p36) (not p65)) (or (not p15) (not p44) (not p64)) (or (not p26) p49 (not p86)) (or p24 p41 p0) (or p53 (not p70) p22) (or (not p22) p34 (not p25)) (or (not p5) p64 p2) (or p66 (not p68) (not p44)) (or (not p33) p66 p48) (or (not p43) p38 (not p88)) (or p2 (not p20) p25) (or (not p82) p54 p21) (or (not p27) p48 (not p12)) (or (not p77) p31 (not p77)) (or p9 p21 p71) (or p30 p25 (not p7)) (or p88 (not p86) p86) (or (not p67) (not p17) (not p42)) (or p12 p89 p10) (or p55 p23 (not p12)) (or p16 p72 (not p3)) (or p3 (not p88) p65) (or p6 p16 p59) (or (not p50) p79 p18) (or (not p21) (not p26) p78) (or p6 (not p12) p29) (or p52 (not p45) p16) (or (not p88) (not p71) p49) (or p35 (not p16) p44) (or p76 p17 p41) (or p48 (not p23) (not p7)) (or p81 p62 (not p58)) (or (not p11) (not p66) p89) (or (not p57) p12 p50) (or (not p82) (not p8) p63) (or p4 p43 p75) (or p7 (not p50) (not p22)) (or (not p19) (not p44) p75) (or p49 p0 p1) (or p82 (not p84) p19) (or p13 p39 p69) (or p9 p29 (not p84)) (or (not p70) (not p75) p40) (or (not p62) p28 (not p10)) (or p48 p81 (not p65)) (or p24 (not p19) p37) (or p11 (not p25) (not p85)) (or (not p36) p82 p76) (or p58 p89 p52) (or (not p14) (not p66) (not p38)) (or (not p23) p45 (not p55)) (or (not p80) (not p49) (not p27)) (or (not p79) (not p35) p38) (or p76 (not p86) (not p55)) (or p32 (not p88) (not p10)) (or p15 (not p38) p46) (or (not p12) p61 (not p55)) (or p33 (not p52) (not p46)) (or (not p30) (not p23) p11) (or p32 (not p88) (not p11)) (or (not p64) (not p38) p51) (or (not p34) p40 p81) (or (not p83) p31 (not p49)) (or (not p34) (not p3) (not p65)) (or (not p28) p65 (not p46)) (or (not p55) (not p61) p6) (or p14 p39 (not p50)) (or (not p77) (not p60) p86) (or (not p82) p31 p0) (or (not p69) p7 p73) (or (not p63) (not p66) (not p16)) (or (not p50) (not p3) (not p22)) (or (not p60) (not p34) (not p36)) (or p88 p2 p81) (or p21 p89 p29) (or p32 p31 (not p41)) (or p64 p85 (not p84)) (or (not p38) p13 p9) (or (not p36) p63 p67) (or (not p58) p60 p45) (or p85 (not p71) (not p27)) (or (not p7) (not p82) p14) (or (not p46) (not p39) (not p5)) (or (not p24) p44 p2) (or (not p84) (not p49) p13) (or (not p35) (not p30) p11) (or (not p40) p5 p23) (or p15 p66 p49) (or p83 (not p42) (not p35)) (or (not p70) (not p11) (not p82)) (or p74 (not p38) (not p9)) (or p62 p63 p32) (or p75 p19 p22) (or (not p59) (not p29) (not p77)) (or (not p37) (not p41) p18) (or p75 (not p23) (not p19)) (or p2 p35 (not p60)) (or p88 p14 (not p56)) (or p56 (not p49) p67) (or (not p82) p64 p77) (or p54 (not p37) (not p11)) (or (not p44) p63 (not p40)) (or p59 (not p6) p76) (or (not p62) (not p74) (not p59)) (or (not p45) (not p9) (not p19)) (or p64 (not p17) p3) (or p64 (not p24) p4) (or (not p89) p49 p16) (or (not p84) p33 p65) (or p53 (not p34) (not p50)) (or p55 (not p15) p75) (or (not p54) (not p25) (not p64)) (or (not p53) p14 (not p38)) (or (not p87) p11 (not p26)) (or (not p53) (not p48) (not p8)) (or p40 p59 p79) (or p55 (not p78) (not p14)) (or p23 p0 (not p54)) (or (not p30) p59 p38) (or p56 p60 (not p63)) (or p5 p72 (not p4)) (or p8 p36 (not p62)) (or p29 p38 (not p30)) (or p23 p87 p10) (or p13 (not p19) (not p24)) (or (not p81) p70 (not p74)) (or (not p62) p61 (not p12)) (or p33 (not p14) (not p1)) (or (not p36) p21 p65) (or p44 (not p69) (not p36)) (or p15 (not p46) (not p73)) (or (not p58) p26 p29) (or (not p3) p3 (not p3)) (or p80 p79 p40) (or (not p36) (not p32) (not p72)) (or (not p88) p28 p33) (or p86 (not p5) p57) (or p83 p58 (not p59)) (or (not p41) (not p63) (not p69)) (or (not p17) p7 p87) (or (not p36) (not p41) (not p20)) (or p23 p5 p33) (or p44 p14 (not p30)) (or (not p44) (not p32) (not p69)) (or p5 (not p78) (not p65)) (or (not p49) (not p26) p14) (or p66 p74 p79) (or p48 (not p65) (not p87)) (or p6 p75 (not p87)) (or p88 (not p83) (not p7)) (or (not p80) (not p37) (not p75)) (or p28 (not p89) (not p76)) (or p34 p84 p19) (or p68 (not p86) p44) (or (not p84) p49 (not p78)) (or p48 p89 (not p0)) (or p41 p40 (not p48)) (or (not p31) p48 p47) (or p88 p4 (not p23)) (or p87 (not p3) p33) (or (not p41) (not p78) p45) (or (not p18) p35 (not p73)) (or (not p7) (not p71) p63) (or (not p14) (not p81) p10) (or (not p13) p80 (not p25)) (or (not p20) p12 (not p71)) (or p87 (not p43) p28) (or p44 (not p28) p29) (or p80 (not p31) (not p74)) (or (not p57) p27 p20) (or p26 p78 (not p20)) (or p61 p88 (not p6)) (or p19 p64 p38) (or p47 p9 p29) (or p3 p12 (not p1)) (or p47 (not p0) (not p57)) (or (not p24) p63 p29) (or (not p3) (not p43) p85) (or (not p3) (not p55) (not p87)) (or (not p64) (not p80) (not p30)) (or (not p21) p69 p25) (or (not p50) (not p87) p74) (or p38 p34 (not p38)) (or p21 p25 p7) (or p78 (not p48) (not p65)) (or (not p68) p33 p48) (or p25 p62 p27) (or p74 (not p3) p8) (or (not p7) p74 p60) (or (not p55) p7 (not p2)) (or p2 p76 p87) (or (not p67) p25 (not p41)) (or p75 (not p59) (not p69)) (or p63 p71 (not p47)) (or (not p58) p77 p19) (or p60 (not p16) p62) (or p14 (not p24) (not p60)) (or p70 p58 p72) (or p2 p3 p62) (or (not p46) p0 (not p40)) (or (not p29) (not p12) (not p67)) (or (not p30) p89 (not p37)) (or p72 (not p52) (not p39)) (or p20 (not p48) p86) (or p62 p9 (not p34)) (or (not p19) (not p22) (not p63)) (or (not p79) p46 (not p72)) (or (not p89) p53 (not p7)) (or (not p63) (not p10) (not p64)) (or (not p72) p67 p64) (or p60 (not p32) (not p68)) (or p37 p69 (not p4)) (or p4 (not p75) p82) (or (not p13) (not p16) (not p80)) (or p80 (not p74) p62) (or (not p34) p50 (not p44)) (or p61 p74 p32) (or (not p51) (not p18) (not p39)) (or p6 p2 (not p0)) (or (not p67) p26 p78) (or (not p19) p5 p47) (or p61 (not p89) p20) (or p40 p78 (not p64)) (or (not p62) (not p42) (not p26)) (or (not p17) (not p59) (not p51)) (or (not p75) p41 (not p78)) (or p37 p21 p31) (or p85 p56 p31) (or (not p12) p76 p21) (or (not p39) p62 (not p1)) (or p63 (not p75) (not p31)) (or (not p51) p2 p27) (or p77 p19 p34) (or (not p47) p56 (not p78)) (or p42 (not p44) p87) (or (not p21) (not p49) p9) (or (not p11) (not p16) (not p53)) (or (not p33) p35 p17) (or p19 p52 (not p85)) (or p30 (not p5) p83) (or (not p15) p24 p12) (or p21 p9 p81) (or p23 p23 p30) (or (not p79) p3 p41) (or p35 (not p47) p1) (or p29 (not p70) p33) (or p3 (not p69) p68) (or (not p83) (not p44) (not p8)) (or p47 (not p19) p43) (or p42 (not p67) p65) (or p60 p20 (not p88)) (or (not p18) (not p69) (not p64)) (or (not p79) p21 (not p81)) (or (not p40) (not p46) (not p86)) (or p10 (not p12) p65) (or (not p50) p30 p10) (or (not p78) p25 (not p0)) (or (not p45) (not p67) (not p53)) (or p75 (not p49) p17) (or (not p56) p21 (not p15)) (or p20 p25 (not p73)) (or p55 (not p51) (not p50)) (or (not p33) p67 (not p40)) (or (not p19) p26 p47) (or (not p27) (not p60) (not p82)) (or (not p37) (not p50) p1) (or (not p24) (not p61) (not p6)) (or (not p37) p47 (not p3)) (or p32 (not p6) p64) (or p14 p26 p20) (or (not p77) p5 (not p33)) (or p36 (not p60) (not p43)) (or p62 (not p28) p63) (or (not p22) p56 p75) (or (not p54) (not p86) (not p50)) (or p3 p80 (not p0)) (or (not p40) p71 p10) (or (not p53) p63 p52) (or (not p89) p59 (not p72)) (or p24 p77 (not p42)) (or (not p87) p51 p20) (or (not p39) p30 (not p24)) (or p62 p70 (not p61)) (or p89 (not p34) p30) (or p79 p85 p67) (or p76 p73 (not p22)) (or (not p31) p69 p64) (or (not p76) p23 (not p51)) (or p69 p13 (not p86)) (or (not p28) p18 (not p64)) (or p32 (not p37) (not p72)) (or p15 (not p5) p21) (or (not p59) p19 (not p34)) (or (not p52) p80 (not p73)) (or p13 p55 p10) (or (not p26) p9 (not p16)) (or (not p15) (not p53) (not p83)) (or (not p27) p35 p14) (or p29 p38 (not p52)) (or p73 p82 p27) (or (not p43) p63 (not p73)) (or p20 (not p41) p5) (or p77 p72 (not p31)) (or (not p3) p24 p13) (or (not p14) (not p13) (not p42)) (or (not p0) (not p64) p83) (or p71 p84 p44) (or (not p37) (not p25) (not p23)) (or p26 p18 p42) (or (not p54) p56 (not p88)) (or p33 p0 (not p68)) (or p89 p52 (not p37)) (or p20 (not p78) p33) (or (not p57) p57 p78) (or (not p80) (not p85) p56) (or p52 p38 (not p66)) (or p1 (not p78) p67) (or (not p35) p20 p6) (or p30 p8 p80) (or p78 p58 p72) (or (not p64) (not p87) p53) (or p20 p80 p75) (or p71 p11 p27) (or p53 p17 p55) (or (not p79) p12 p52) (or p82 p64 (not p41)) (or (not p1) (not p11) p1) (or (not p60) p15 p73) (or p85 p14 p65) (or (not p7) (not p11) (not p41)) (or p84 p12 (not p70)) (or (not p39) p53 p3) (or (not p52) (not p60) p50) (or (not p63) (not p48) (not p66)) (or p53 (not p35) (not p39)) (or (not p10) (not p32) p62) (or p64 (not p48) (not p73)) (or (not p30) p39 (not p58)) (or p52 (not p19) p33) (or p83 p63 p74) (or p9 p87 (not p43)) (or p72 (not p61) (not p56)) (or p43 (not p12) (not p77)) (or (not p46) (not p39) (not p4)) (or p7 p21 p14) (or (not p69) p23 p23) (or p8 (not p39) (not p82)) (or (not p85) p78 (not p69)) (or (not p19) p36 p4) (or (not p55) (not p68) (not p1)) (or p65 p3 (not p66)) (or p5 p1 p43) (or (not p85) (not p18) (not p36)) (or (not p68) p83 p3) (or p63 p75 p50) (or p35 p56 p31) (or p25 p31 p26) (or (not p71) (not p14) p13) (or p55 (not p78) p73) (or p75 (not p44) p37) (or (not p26) p73 (not p24)) (or p58 (not p83) (not p15)) (or (not p7) p68 (not p86)) (or p58 (not p1) (not p69)) (or p40 p6 p78) (or p14 (not p63) p21) (or p68 p72 p0) (or (not p55) p60 (not p65)) (or (not p40) p85 (not p27)) (or p57 (not p47) p30) (or p46 (not p78) (not p62)) (or p18 p24 p49) (or p60 (not p49) (not p14)) (or (not p74) (not p23) (not p74)) (or (not p61) (not p81) (not p36)) (or (not p20) (not p27) (not p59)) (or p80 p63 (not p61)) (or p57 (not p22) p89) (or (not p71) (not p25) (not p26)) (or p18 p14 p43) (or p57 (not p13) (not p43)) (or (not p72) (not p78) (not p11)) (or p12 p88 p32) (or (not p62) (not p0) (not p15)) (or p79 (not p81) (not p71)) (or (not p41) (not p81) p66) (or p56 (not p38) (not p21)) (or (not p26) (not p9) p87) (or (not p8) p65 (not p66)) (or (not p30) p58 p64) (or (not p70) (not p20) p15) (or (not p4) p55 (not p28)) (or p73 (not p59) p39) (or p13 (not p35) (not p86)))
)
(check-sat)
(get-model)
